set F_UNIQ := 6 9 12;
set F_NODES[6] := 6 7 8;
set F_NODES[9] := 9 10 11;
set F_NODES[12] := 12 13 14;
#definition

# set
set V := 1 2 3 4 5 ; 	# customer set
set F := 6 9 12 7 8 10 11 13 14 ;#recharging & battery swapping station
set D0 :=0;
set Dsig :=15;


# param
param CV := 200;    		# ECV fixed cost(Topic Given)
param C := 1000;   		# ECV max load
param Q := 60.63; 		# ECV/BSV battery level
param h := 1;     		# ECV consumption

param CB := 267;    		# BSV fixed cost(Topic Given)
param Qplun := 5;       # BSV max load(battery)
param hplun := 1;     	# BSV consumption
param W := 121.26;		# BSV battery level

param Ct := 10;    		# travel cost
param Cr := 100;    		# recharging cost
param lamda := 0.00;	# battery swap time
param Cb ;  	    # battery swap cost(BSS/BSV)
param n :=5;	   		# number of customers
param g :=1.47 ;     	# the recharging rate of ECV 



# customer demend
param m :=
0 0
1 14
2 2
3 8
4 12
5 25
6 0
9 0
12 0
7 0
8 0
10 0
11 0
13 0
14 0
15 0;

param e :=
0 0
1 817
2 733
3 0
4 377
5 0
6 0
9 0
12 0
7 0
8 0
10 0
11 0
13 0
14 0
15 0;

param l :=
0 1000
1 952
2 870
3 968
4 434
5 967
6 1000
9 1000
12 1000
7 1000
8 1000
10 1000
11 1000
13 1000
14 1000
15 1000;

param s :=
0 0
1 10
2 10
3 10
4 10
5 10
6 0
9 0
12 0
7 0
8 0
10 0
11 0
13 0
14 0
15 0;

param d : 0 1 2 3 4 5 6 9 12 7 8 10 11 13 14 15 :=
0 0.0000 19.6977 30.4138 21.2132 15.8114 22.4722 0.0000 19.1050 19.0263 0.0000 0.0000 19.1050 19.1050 19.0263 19.0263 0.0000
1 19.6977 0.0000 49.7293 40.2244 33.1361 27.6586 19.6977 38.2753 33.0151 19.6977 19.6977 38.2753 38.2753 33.0151 33.0151 19.6977
2 30.4138 49.7293 0.0000 18.0278 18.0278 44.2719 30.4138 17.8885 32.2025 30.4138 30.4138 17.8885 17.8885 32.2025 32.2025 30.4138
3 21.2132 40.2244 18.0278 0.0000 20.0000 27.2947 21.2132 2.2361 14.5602 21.2132 21.2132 2.2361 2.2361 14.5602 14.5602 21.2132
4 15.8114 33.1361 18.0278 20.0000 0.0000 36.1248 15.8114 18.0278 27.7849 15.8114 15.8114 18.0278 18.0278 27.7849 27.7849 15.8114
5 22.4722 27.6586 44.2719 27.2947 36.1248 0.0000 22.4722 26.6833 13.0000 22.4722 22.4722 26.6833 26.6833 13.0000 13.0000 22.4722
6 0.0000 19.6977 30.4138 21.2132 15.8114 22.4722 0.0000 19.1050 19.0263 0.0000 0.0000 19.1050 19.1050 19.0263 19.0263 0.0000
9 19.1050 38.2753 17.8885 2.2361 18.0278 26.6833 19.1050 0.0000 14.3178 19.1050 19.1050 0.0000 0.0000 14.3178 14.3178 19.1050
12 19.0263 33.0151 32.2025 14.5602 27.7849 13.0000 19.0263 14.3178 0.0000 19.0263 19.0263 14.3178 14.3178 0.0000 0.0000 19.0263
7 0.0000 19.6977 30.4138 21.2132 15.8114 22.4722 0.0000 19.1050 19.0263 0.0000 0.0000 19.1050 19.1050 19.0263 19.0263 0.0000
8 0.0000 19.6977 30.4138 21.2132 15.8114 22.4722 0.0000 19.1050 19.0263 0.0000 0.0000 19.1050 19.1050 19.0263 19.0263 0.0000
10 19.1050 38.2753 17.8885 2.2361 18.0278 26.6833 19.1050 0.0000 14.3178 19.1050 19.1050 0.0000 0.0000 14.3178 14.3178 19.1050
11 19.1050 38.2753 17.8885 2.2361 18.0278 26.6833 19.1050 0.0000 14.3178 19.1050 19.1050 0.0000 0.0000 14.3178 14.3178 19.1050
13 19.0263 33.0151 32.2025 14.5602 27.7849 13.0000 19.0263 14.3178 0.0000 19.0263 19.0263 14.3178 14.3178 0.0000 0.0000 19.0263
14 19.0263 33.0151 32.2025 14.5602 27.7849 13.0000 19.0263 14.3178 0.0000 19.0263 19.0263 14.3178 14.3178 0.0000 0.0000 19.0263
15 0.0000 19.6977 30.4138 21.2132 15.8114 22.4722 0.0000 19.1050 19.0263 0.0000 0.0000 19.1050 19.1050 19.0263 19.0263 0.0000
;

param t : 0 1 2 3 4 5 6 9 12 7 8 10 11 13 14 15 :=
0 0.0000 19.6977 30.4138 21.2132 15.8114 22.4722 0.0000 19.1050 19.0263 0.0000 0.0000 19.1050 19.1050 19.0263 19.0263 0.0000
1 19.6977 0.0000 49.7293 40.2244 33.1361 27.6586 19.6977 38.2753 33.0151 19.6977 19.6977 38.2753 38.2753 33.0151 33.0151 19.6977
2 30.4138 49.7293 0.0000 18.0278 18.0278 44.2719 30.4138 17.8885 32.2025 30.4138 30.4138 17.8885 17.8885 32.2025 32.2025 30.4138
3 21.2132 40.2244 18.0278 0.0000 20.0000 27.2947 21.2132 2.2361 14.5602 21.2132 21.2132 2.2361 2.2361 14.5602 14.5602 21.2132
4 15.8114 33.1361 18.0278 20.0000 0.0000 36.1248 15.8114 18.0278 27.7849 15.8114 15.8114 18.0278 18.0278 27.7849 27.7849 15.8114
5 22.4722 27.6586 44.2719 27.2947 36.1248 0.0000 22.4722 26.6833 13.0000 22.4722 22.4722 26.6833 26.6833 13.0000 13.0000 22.4722
6 0.0000 19.6977 30.4138 21.2132 15.8114 22.4722 0.0000 19.1050 19.0263 0.0000 0.0000 19.1050 19.1050 19.0263 19.0263 0.0000
9 19.1050 38.2753 17.8885 2.2361 18.0278 26.6833 19.1050 0.0000 14.3178 19.1050 19.1050 0.0000 0.0000 14.3178 14.3178 19.1050
12 19.0263 33.0151 32.2025 14.5602 27.7849 13.0000 19.0263 14.3178 0.0000 19.0263 19.0263 14.3178 14.3178 0.0000 0.0000 19.0263
7 0.0000 19.6977 30.4138 21.2132 15.8114 22.4722 0.0000 19.1050 19.0263 0.0000 0.0000 19.1050 19.1050 19.0263 19.0263 0.0000
8 0.0000 19.6977 30.4138 21.2132 15.8114 22.4722 0.0000 19.1050 19.0263 0.0000 0.0000 19.1050 19.1050 19.0263 19.0263 0.0000
10 19.1050 38.2753 17.8885 2.2361 18.0278 26.6833 19.1050 0.0000 14.3178 19.1050 19.1050 0.0000 0.0000 14.3178 14.3178 19.1050
11 19.1050 38.2753 17.8885 2.2361 18.0278 26.6833 19.1050 0.0000 14.3178 19.1050 19.1050 0.0000 0.0000 14.3178 14.3178 19.1050
13 19.0263 33.0151 32.2025 14.5602 27.7849 13.0000 19.0263 14.3178 0.0000 19.0263 19.0263 14.3178 14.3178 0.0000 0.0000 19.0263
14 19.0263 33.0151 32.2025 14.5602 27.7849 13.0000 19.0263 14.3178 0.0000 19.0263 19.0263 14.3178 14.3178 0.0000 0.0000 19.0263
15 0.0000 19.6977 30.4138 21.2132 15.8114 22.4722 0.0000 19.1050 19.0263 0.0000 0.0000 19.1050 19.1050 19.0263 19.0263 0.0000
;